c
c /Users/conrad/Desktop/projet_binero/output/mini.dimacs
c
p cnf 4 25
1 0
-1 1 0
-1 -2 0
2 1 0
2 -2 0
-3 3 0
-3 -4 0
4 3 0
4 -4 0
-1 1 0
-1 -3 0
3 1 0
3 -3 0
-2 2 0
-2 -4 0
4 2 0
4 -4 0
-1 -3 -2 -4 0
-1 -3 2 4 0
1 3 -2 -4 0
1 3 2 4 0
-1 -2 -3 -4 0
-1 -2 3 4 0
1 2 -3 -4 0
1 2 3 4 0
